Read MPS format model from file dat/rmp/DER_96_8192_50.mps
Reading time = 1.74 seconds
: 8288 rows, 59680 columns, 5135328 nonzeros
Gurobi Optimizer version 9.0.0 build v9.0.0rc2 (linux64)
Optimize a model with 8288 rows, 59680 columns and 5135328 nonzeros
Model fingerprint: 0x3042a5f4
Coefficient statistics:
  Matrix range     [4e-05, 1e+01]
  Objective range  [8e-01, 1e+03]
  Bounds range     [5e+04, 5e+04]
  RHS range        [1e+00, 1e+00]
Ordering time: 0.02s

Barrier statistics:
 AA' NZ     : 7.468e+05
 Factor NZ  : 8.369e+05 (roughly 34 MBytes of memory)
 Factor Ops : 8.770e+07 (less than 1 second per iteration)
 Threads    : 1

                  Objective                Residual
Iter       Primal          Dual         Primal    Dual     Compl     Time
   0   2.52091147e+09 -2.67245935e+08  3.65e+07 2.40e-02  6.53e+05     1s
   1   4.74331521e+07 -3.93269491e+07  6.35e+05 3.64e-12  1.20e+04     2s
   2   4.61793123e+06 -1.16966540e+07  6.04e+04 3.64e-12  1.29e+03     2s
   3   1.75858625e+05 -5.75278234e+06  1.49e+03 5.50e-12  1.21e+02     2s
   4   5.71059773e+04 -8.15073318e+05  1.89e-10 3.64e-12  1.46e+01     3s
   5   5.66279885e+04  4.03125851e+04  3.33e-10 3.64e-12  2.73e-01     3s
   6   5.63710202e+04  5.33860754e+04  2.26e-10 1.64e-11  4.99e-02     3s
   7   5.59618580e+04  5.48435567e+04  1.74e-10 5.46e-12  1.87e-02     4s
   8   5.58270248e+04  5.51984045e+04  2.56e-10 3.64e-12  1.05e-02     4s
   9   5.57022099e+04  5.53799864e+04  3.30e-10 3.64e-12  5.39e-03     5s
  10   5.56116212e+04  5.54615675e+04  3.53e-10 3.64e-12  2.51e-03     5s
  11   5.55880204e+04  5.54944442e+04  5.32e-10 3.64e-12  1.57e-03     6s
  12   5.55541354e+04  5.55089759e+04  1.91e-09 1.82e-12  7.55e-04     6s
  13   5.55477517e+04  5.55127539e+04  1.77e-09 1.82e-12  5.85e-04     6s
  14   5.55362229e+04  5.55172128e+04  2.51e-09 3.64e-12  3.18e-04     7s
  15   5.55322978e+04  5.55208411e+04  3.37e-09 3.64e-12  1.92e-04     7s
  16   5.55294215e+04  5.55223531e+04  2.57e-09 1.82e-12  1.18e-04     8s
  17   5.55270380e+04  5.55233590e+04  6.02e-09 1.82e-12  6.15e-05     8s
  18   5.55259173e+04  5.55239637e+04  5.06e-09 3.64e-12  3.27e-05     9s
  19   5.55254026e+04  5.55242493e+04  6.04e-09 1.82e-12  1.93e-05     9s
  20   5.55249587e+04  5.55244232e+04  4.21e-09 1.82e-12  8.96e-06     9s
  21   5.55248342e+04  5.55244743e+04  4.28e-09 1.82e-12  6.02e-06    10s
  22   5.55246566e+04  5.55245149e+04  5.83e-09 1.82e-12  2.37e-06    10s
  23   5.55245619e+04  5.55245405e+04  1.22e-08 3.64e-12  3.59e-07    11s
  24   5.55245481e+04  5.55245424e+04  1.05e-07 1.82e-12  9.64e-08    11s
  25   5.55245433e+04  5.55245431e+04  4.65e-07 3.64e-12  2.27e-09    11s

Barrier solved model in 25 iterations and 11.49 seconds
Optimal objective 5.55245433e+04

Solve time: 11.494751073
Barrier iterations: 25
